NAME : H-n10-k3
CAPACITY : 692
NODE_COORD_SECTION
1   180   76
2   372   178
3   375   425
4   245   361
5   191   84
6   500   451
7   314   281
8   335   170
9   297   162
10   184   245
DEMAND_SECTION
1   0
2   84
3   70
4   14
5   86
6   38
7   28
8   89
9   77
10   27
DEPOT_SECTION
    1
    -1
EOF